3	25
145	149	788	852	905	959	306	599	416	940	920	903	742	916	108	985	992	110	803	115	263	209	800	14	243	
758	163	393	135	766	999	4	5	298	549	748	906	108	57	402	883	563	317	879	805	793	727	253	463	190	
3041	3041	3041	
